Route #1: 21 31 19 17 13 7 26
Route #2: 12 1 16 30
Route #3: 27 24
Route #4: 29 18 8 9 22 15 10 25 5 20
Route #5: 14 28 11 4 23 3 2 6
cost 784


[[0, 29, 22, 9, 15, 10, 25, 5, 20, 0], [0, 13, 21, 31, 19, 17, 6, 26, 0], [0, 2, 3, 23, 28, 4, 11, 8, 18, 14, 0], [0, 12, 1, 7, 16, 30, 0], [0, 24, 27, 0]]